
Gurobi 12.0.2 (win64) logging started Sun Jun  8 11:32:24 2025

Set parameter LogFile to value "C:\Ioana\_uni\honours\slp\algorithm\Main_files\results\others\prox_tubules_new_model\Task_003_Sample002_irr_gurobi.log"
Gurobi Optimizer version 12.0.2 build v12.0.2rc0 (win64 - Windows 11.0 (26100.2))

CPU model: Intel(R) Core(TM) Ultra 5 125H, instruction set [SSE2|AVX|AVX2]
Thread count: 14 physical cores, 18 logical processors, using up to 18 threads

Non-default parameters:
TimeLimit  2200

Optimize a model with 47226 rows, 34499 columns and 146686 nonzeros
Model fingerprint: 0x23ec9e88
Variable types: 17254 continuous, 17245 integer (17245 binary)
Coefficient statistics:
  Matrix range     [1e-04, 8e+04]
  Objective range  [1e-04, 9e-01]
  Bounds range     [1e+00, 1e+03]
  RHS range        [1e+00, 1e+00]
Presolve removed 30776 rows and 21546 columns
Presolve time: 0.33s
Presolved: 16450 rows, 12953 columns, 54678 nonzeros
Variable types: 6409 continuous, 6544 integer (6544 binary)

Root relaxation: objective 2.677531e-04, 468 iterations, 0.04 seconds (0.03 work units)

    Nodes    |    Current Node    |     Objective Bounds      |     Work
 Expl Unexpl |  Obj  Depth IntInf | Incumbent    BestBd   Gap | It/Node Time

     0     0    0.00027    0   11          -    0.00027      -     -    0s
H    0     0                       0.2580795    0.00027   100%     -    0s
     0     0    0.17854    0   16    0.25808    0.17854  30.8%     -    0s
     0     0    0.25619    0    2    0.25808    0.25619  0.73%     -    0s
     0     0          -    0         0.25808    0.25808  0.00%     -    0s

Cutting planes:
  Implied bound: 5
  Clique: 2
  Network: 1

Explored 1 nodes (614 simplex iterations) in 0.63 seconds (0.63 work units)
Thread count was 18 (of 18 available processors)

Solution count 1: 0.25808 

Optimal solution found (tolerance 1.00e-04)
Best objective 2.580795152737e-01, best bound 2.580776234841e-01, gap 0.0007%
